Route #1: 46 8 53 11 7 
Route #2: 4 47 2 51 40 
Route #3: 45 52 54 19 14 35 
Route #4: 6 43 42 56 23 16 17 
Route #5: 29 5 37 20 36 30 
Route #6: 28 48 15 57 13 27 34 
Route #7: 21 59 22 1 18 55 25 
Route #8: 32 39 10 38 26 
Route #9: 12 31 9 24 49 41 
Route #10: 33 3 44 50 58 
cost 983.074
